(set-info :source |printed by MathSAT|)
(declare-fun |.x{167}| () Int)
(declare-fun |.y{7}| () Int)
(declare-fun |.y{6}| () Int)
(declare-fun |.y{8}| () Int)
(declare-fun |.x{168}| () (Array Int Int))
(declare-fun |.y{9}| () (Array Int Int))
(declare-fun |.x{166}| () Int)
(declare-fun |.y{10}| () Int)
(declare-fun |.x{163}| () Int)
(declare-fun |.y{11}| () Int)
(declare-fun |.loc{4}| () Bool)
(declare-fun |.loc{7}| () Bool)
(declare-fun |.loc{5}| () Bool)
(declare-fun |.loc{8}| () Bool)
(declare-fun |.loc{6}| () Bool)
(declare-fun |.loc{9}| () Bool)
(declare-fun |.x{169}| () Int)
(define-fun .def_18 () Bool (! |.loc{4}| :next |.loc{7}|))
(define-fun .def_67 () Bool (not .def_18))
(define-fun .def_20 () Bool (! |.loc{5}| :next |.loc{8}|))
(define-fun .def_29 () Bool (not .def_20))
(define-fun .def_206 () Bool (and .def_29 .def_67))
(define-fun .def_22 () Bool (! |.loc{6}| :next |.loc{9}|))
(define-fun .def_38 () Bool (not .def_22))
(define-fun .def_207 () Bool (! (and .def_38 .def_206) :init true))
(define-fun .def_12 () (Array Int Int) (! |.x{168}| :next |.y{9}|))
(define-fun .def_166 () Int (select .def_12 |.x{169}|))
(define-fun .def_167 () Bool (= .def_166 45))
(define-fun .def_190 () Bool (not .def_167))
(define-fun .def_53 () Int (* (- 1) |.x{169}|))
(define-fun .def_14 () Int (! |.x{166}| :next |.y{10}|))
(define-fun .def_157 () Int (+ .def_14 .def_53))
(define-fun .def_8 () Int (! |.x{167}| :next |.y{7}|))
(define-fun .def_158 () Int (+ .def_8 .def_157))
(define-fun .def_159 () Bool (= .def_158 0))
(define-fun .def_16 () Int (! |.x{163}| :next |.y{11}|))
(define-fun .def_153 () Bool (<= .def_16 .def_14))
(define-fun .def_154 () Bool (not .def_153))
(define-fun .def_160 () Bool (and .def_154 .def_159))
(define-fun .def_186 () Bool (and |.loc{8}| .def_160))
(define-fun .def_48 () Bool (<= .def_8 0))
(define-fun .def_46 () Bool (<= |.x{169}| 0))
(define-fun .def_47 () Bool (not .def_46))
(define-fun .def_49 () Bool (or .def_47 .def_48))
(define-fun .def_187 () Bool (and .def_49 .def_186))
(define-fun .def_85 () Bool (not |.loc{7}|))
(define-fun .def_188 () Bool (and .def_85 .def_187))
(define-fun .def_51 () Bool (not .def_48))
(define-fun .def_189 () Bool (and .def_51 .def_188))
(define-fun .def_191 () Bool (and .def_189 .def_190))
(define-fun .def_192 () Bool (and .def_18 .def_191))
(define-fun .def_184 () Bool (= .def_14 |.y{11}|))
(define-fun .def_179 () Bool (= |.y{10}| 0))
(define-fun .def_36 () Bool (not |.loc{8}|))
(define-fun .def_177 () Bool (and |.loc{7}| .def_36))
(define-fun .def_178 () Bool (and .def_67 .def_177))
(define-fun .def_180 () Bool (and .def_178 .def_179))
(define-fun .def_10 () Int (! |.y{6}| :next |.y{8}|))
(define-fun .def_32 () Bool (<= .def_14 .def_10))
(define-fun .def_181 () Bool (and .def_32 .def_180))
(define-fun .def_60 () Bool (= .def_8 |.y{7}|))
(define-fun .def_182 () Bool (and .def_60 .def_181))
(define-fun .def_101 () Bool (= .def_12 |.y{9}|))
(define-fun .def_183 () Bool (and .def_101 .def_182))
(define-fun .def_185 () Bool (and .def_183 .def_184))
(define-fun .def_193 () Bool (or .def_185 .def_192))
(define-fun .def_174 () Bool (= .def_16 |.y{11}|))
(define-fun .def_169 () Int (* (- 1) |.y{10}|))
(define-fun .def_170 () Int (+ .def_14 .def_169))
(define-fun .def_171 () Bool (= .def_170 (- 1)))
(define-fun .def_161 () Bool (and |.loc{7}| .def_160))
(define-fun .def_162 () Bool (and .def_36 .def_161))
(define-fun .def_163 () Bool (and .def_49 .def_162))
(define-fun .def_164 () Bool (and .def_51 .def_163))
(define-fun .def_165 () Bool (and .def_60 .def_164))
(define-fun .def_168 () Bool (and .def_165 .def_167))
(define-fun .def_172 () Bool (and .def_168 .def_171))
(define-fun .def_173 () Bool (and .def_101 .def_172))
(define-fun .def_175 () Bool (and .def_173 .def_174))
(define-fun .def_176 () Bool (and .def_18 .def_175))
(define-fun .def_194 () Bool (or .def_176 .def_193))
(define-fun .def_195 () Bool (and .def_29 .def_194))
(define-fun .def_196 () Bool (and .def_22 .def_195))
(define-fun .def_144 () Bool (and .def_36 .def_38))
(define-fun .def_145 () Bool (and .def_85 .def_144))
(define-fun .def_69 () Bool (= |.y{8}| 0))
(define-fun .def_146 () Bool (and .def_69 .def_145))
(define-fun .def_147 () Bool (and .def_32 .def_146))
(define-fun .def_58 () Bool (= .def_14 |.y{10}|))
(define-fun .def_148 () Bool (and .def_58 .def_147))
(define-fun .def_149 () Bool (and .def_60 .def_148))
(define-fun .def_150 () Bool (and .def_101 .def_149))
(define-fun .def_151 () Bool (and .def_18 .def_150))
(define-fun .def_152 () Bool (and .def_20 .def_151))
(define-fun .def_197 () Bool (or .def_152 .def_196))
(define-fun .def_131 () (Array Int Int) (store .def_12 |.x{169}| 45))
(define-fun .def_132 () Bool (= |.y{9}| .def_131))
(define-fun .def_26 () Int (* (- 1) |.y{8}|))
(define-fun .def_27 () Int (+ .def_10 .def_26))
(define-fun .def_28 () Bool (= .def_27 (- 1)))
(define-fun .def_30 () Bool (and .def_28 .def_29))
(define-fun .def_133 () Bool (and .def_30 .def_132))
(define-fun .def_33 () Bool (not .def_32))
(define-fun .def_134 () Bool (and .def_33 .def_133))
(define-fun .def_135 () Bool (and .def_36 .def_134))
(define-fun .def_136 () Bool (and .def_85 .def_135))
(define-fun .def_137 () Bool (and .def_49 .def_136))
(define-fun .def_138 () Bool (and .def_67 .def_137))
(define-fun .def_139 () Bool (and .def_51 .def_138))
(define-fun .def_54 () Int (+ .def_10 .def_53))
(define-fun .def_55 () Int (+ .def_8 .def_54))
(define-fun .def_56 () Bool (= .def_55 0))
(define-fun .def_140 () Bool (and .def_56 .def_139))
(define-fun .def_141 () Bool (and .def_58 .def_140))
(define-fun .def_142 () Bool (and .def_60 .def_141))
(define-fun .def_143 () Bool (and .def_22 .def_142))
(define-fun .def_198 () Bool (or .def_143 .def_197))
(define-fun .def_199 () Bool (and |.loc{9}| .def_198))
(define-fun .def_24 () Bool (not |.loc{9}|))
(define-fun .def_120 () Bool (and |.loc{7}| .def_24))
(define-fun .def_121 () Bool (and |.loc{8}| .def_120))
(define-fun .def_122 () Bool (and .def_38 .def_121))
(define-fun .def_123 () Bool (and .def_69 .def_122))
(define-fun .def_124 () Bool (and .def_67 .def_123))
(define-fun .def_125 () Bool (and .def_32 .def_124))
(define-fun .def_126 () Bool (and .def_58 .def_125))
(define-fun .def_127 () Bool (and .def_60 .def_126))
(define-fun .def_128 () Bool (and .def_101 .def_127))
(define-fun .def_129 () Bool (and .def_20 .def_128))
(define-fun .def_200 () Bool (or .def_129 .def_199))
(define-fun .def_115 () (Array Int Int) (store .def_12 |.x{169}| 44))
(define-fun .def_116 () Bool (= |.y{9}| .def_115))
(define-fun .def_104 () Bool (and .def_24 .def_28))
(define-fun .def_105 () Bool (and .def_33 .def_104))
(define-fun .def_106 () Bool (and |.loc{7}| .def_105))
(define-fun .def_107 () Bool (and |.loc{8}| .def_106))
(define-fun .def_108 () Bool (and .def_38 .def_107))
(define-fun .def_109 () Bool (and .def_49 .def_108))
(define-fun .def_110 () Bool (and .def_51 .def_109))
(define-fun .def_111 () Bool (and .def_56 .def_110))
(define-fun .def_112 () Bool (and .def_58 .def_111))
(define-fun .def_113 () Bool (and .def_60 .def_112))
(define-fun .def_117 () Bool (and .def_113 .def_116))
(define-fun .def_118 () Bool (and .def_18 .def_117))
(define-fun .def_119 () Bool (and .def_20 .def_118))
(define-fun .def_201 () Bool (or .def_119 .def_200))
(define-fun .def_63 () Bool (and .def_24 .def_29))
(define-fun .def_94 () Bool (and |.loc{8}| .def_63))
(define-fun .def_95 () Bool (and .def_38 .def_94))
(define-fun .def_96 () Bool (and .def_85 .def_95))
(define-fun .def_97 () Bool (and .def_69 .def_96))
(define-fun .def_98 () Bool (and .def_32 .def_97))
(define-fun .def_99 () Bool (and .def_58 .def_98))
(define-fun .def_100 () Bool (and .def_60 .def_99))
(define-fun .def_102 () Bool (and .def_100 .def_101))
(define-fun .def_103 () Bool (and .def_18 .def_102))
(define-fun .def_202 () Bool (or .def_103 .def_201))
(define-fun .def_78 () (Array Int Int) (store .def_12 |.x{169}| 43))
(define-fun .def_79 () Bool (= |.y{9}| .def_78))
(define-fun .def_80 () Bool (and .def_28 .def_79))
(define-fun .def_81 () Bool (and .def_24 .def_80))
(define-fun .def_82 () Bool (and .def_33 .def_81))
(define-fun .def_83 () Bool (and |.loc{8}| .def_82))
(define-fun .def_84 () Bool (and .def_38 .def_83))
(define-fun .def_86 () Bool (and .def_84 .def_85))
(define-fun .def_87 () Bool (and .def_49 .def_86))
(define-fun .def_88 () Bool (and .def_67 .def_87))
(define-fun .def_89 () Bool (and .def_51 .def_88))
(define-fun .def_90 () Bool (and .def_56 .def_89))
(define-fun .def_91 () Bool (and .def_58 .def_90))
(define-fun .def_92 () Bool (and .def_60 .def_91))
(define-fun .def_93 () Bool (and .def_20 .def_92))
(define-fun .def_203 () Bool (or .def_93 .def_202))
(define-fun .def_74 () Bool (<= |.y{10}| 0))
(define-fun .def_75 () Bool (not .def_74))
(define-fun .def_71 () Bool (<= |.y{7}| 0))
(define-fun .def_72 () Bool (not .def_71))
(define-fun .def_64 () Bool (and |.loc{7}| .def_63))
(define-fun .def_65 () Bool (and .def_36 .def_64))
(define-fun .def_66 () Bool (and .def_38 .def_65))
(define-fun .def_68 () Bool (and .def_66 .def_67))
(define-fun .def_70 () Bool (and .def_68 .def_69))
(define-fun .def_73 () Bool (and .def_70 .def_72))
(define-fun .def_76 () Bool (and .def_73 .def_75))
(define-fun .def_204 () Bool (or .def_76 .def_203))
(define-fun .def_42 () (Array Int Int) (store .def_12 |.x{169}| 42))
(define-fun .def_43 () Bool (= |.y{9}| .def_42))
(define-fun .def_31 () Bool (and .def_24 .def_30))
(define-fun .def_34 () Bool (and .def_31 .def_33))
(define-fun .def_35 () Bool (and |.loc{7}| .def_34))
(define-fun .def_37 () Bool (and .def_35 .def_36))
(define-fun .def_39 () Bool (and .def_37 .def_38))
(define-fun .def_44 () Bool (and .def_39 .def_43))
(define-fun .def_50 () Bool (and .def_44 .def_49))
(define-fun .def_52 () Bool (and .def_50 .def_51))
(define-fun .def_57 () Bool (and .def_52 .def_56))
(define-fun .def_59 () Bool (and .def_57 .def_58))
(define-fun .def_61 () Bool (and .def_59 .def_60))
(define-fun .def_62 () Bool (and .def_18 .def_61))
(define-fun .def_205 () Bool (! (or .def_62 .def_204) :trans true))
(define-fun .def_208 () Bool (and .def_20 .def_67))
(define-fun .def_209 () Bool (and .def_22 .def_208))
(define-fun .def_210 () Bool (! (not .def_209) :invar-property 0))
(assert true)
